Comps = {frontend0, frontend1, backend0, backend1, database0, database1};
mustComps = {frontend0, frontend1};
Flavs = {tiny, medium, large};
Nodes = {n1, n2, n3};
CRes = {CPU, RAM, storage, bwIn, bwOut};
NRes = {ssl, fwall, encr, avail, latency};
Flav = [{medium, large}, {medium, large}, {tiny, medium, large}, {tiny, medium, large}, {large}, {large}];
Uses = array2d(CompFlavs, CompFlavs, [
	0,0,0,0,0,0,0,1,0,0,0,0,
	0,0,0,0,0,0,0,1,0,0,0,0,
	0,0,0,0,0,0,0,1,0,0,0,0,
	0,0,0,0,0,0,0,1,0,0,0,0,
	0,0,0,0,0,0,0,0,0,0,0,0,
	0,0,0,0,0,0,0,0,0,1,0,0,
	0,0,0,0,0,0,0,0,0,1,0,0,
	0,0,0,0,0,0,0,0,0,0,0,0,
	0,0,0,0,0,0,1,0,0,0,0,0,
	0,0,0,0,0,0,1,0,0,0,0,0,
	0,0,0,0,0,0,0,0,0,0,0,0,
	0,0,0,0,0,0,0,0,0,0,0,0,
]);
mayUse = array2d(Comps, CompFlavs, [
	0,0,0,0,0,0,0,0,0,0,0,0,
	0,0,0,0,0,0,0,0,0,0,0,0,
	0,0,0,0,0,0,0,0,1,1,0,0,
	1,1,1,1,0,1,1,0,0,0,0,0,
	0,0,0,0,0,0,0,0,0,0,0,0,
	0,0,0,0,0,0,0,0,0,0,0,0,
]);
MIN_RBOUNDS = 0;
MAX_RBOUNDS = 1000000;

worstBounds = [0, 0, 0, 0, 0, 0, 0, 0, 0, MAX_RBOUNDS];
bestBounds = [MAX_RBOUNDS - i | i in worstBounds];

comReq = array2d(CompFlavs, Res, [
  4, 409, 496, 604, 320, 1, 1, 1, 97, MAX_RBOUNDS,
  2, 240, 364, 653, 208, 0, 0, 1, 96, MAX_RBOUNDS,
  2, 224, 426, 337, 703, 1, 1, 1, 95, MAX_RBOUNDS,
  2, 480, 242, 574, 835, 1, 1, 0, 95, MAX_RBOUNDS,
  2, 465, 481, 730, 860, 1, 0, 1, 96, MAX_RBOUNDS,
  2, 415, 392, 947, 477, 0, 0, 1, 96, MAX_RBOUNDS,
  4, 458, 219, 757, 429, 1, 0, 1, 96, MAX_RBOUNDS,
  4, 417, 312, 314, 291, 1, 1, 0, 96, MAX_RBOUNDS,
  2, 203, 318, 945, 433, 0, 0, 1, 96, MAX_RBOUNDS,
  2, 482, 245, 604, 897, 1, 1, 1, 97, MAX_RBOUNDS,
  8, 303, 373, 728, 903, 1, 1, 1, 97, MAX_RBOUNDS,
  2, 310, 373, 787, 356, 0, 1, 0, 97, MAX_RBOUNDS,
]);

nodeCap = array2d(Nodes0, Res, [bestBounds[r] | r in Res] ++ [
  16, 32634, 216912, 23239, 18483, 1, 0, 1, 99, 0,
  32, 93482, 858034, 15606, 13956, 1, 1, 1, 99, 0,
  16, 111111, 567391, 21174, 13054, 1, 1, 0, 98, 0,
]);

cost = array2d(Nodes0, Res, [
  0, 0, 0, 0, 0, 0, 0, 0, 0, 0, % no node
  17, 5, 20, 0, 0, 0, 0, 0, 0, 0,
  20, 9, 20, 0, 0, 0, 0, 0, 0, 0,
  11, 10, 22, 0, 0, 0, 0, 0, 0, 0,
]);

carb = array2d(Nodes0, Res, [
  0, 0, 0, 0, 0, 0, 0, 0, 0, 0, % no node
  15, 16, 48, 0, 0, 0, 0, 0, 0, 0,
  14, 18, 20, 0, 0, 0, 0, 0, 0, 0,
  8, 32, 18, 0, 0, 0, 0, 0, 0, 0,
]);

costBudget = 43161;
carbBudget = 49817;

depReq = array4d(Comps, Flavs, Comps, Res, [
  if c1 = frontend0 /\ c2 = backend1 /\ r = N(avail) then
    95
  elseif c1 = frontend1 /\ c2 = backend1 /\ r = N(avail) then
    95
  elseif c1 = frontend0 /\ c2 = backend0 /\ r = N(avail) then
    97
  else
    worstBounds[r]
  endif | c1 in Comps, i in Flavs, c2 in Comps, r in Res]);

linkCap = array3d(Nodes0, Nodes0, Res, [
  if ni = 0 \/ nj = 0 then
    bestBounds[r]
  elseif ni = nj /\ r = N(avail) then
    nodeCap[ni,r]
  elseif {ni, nj} = {n1, n3} /\ r = N(avail) then
    98
  elseif {ni, nj} = {n1, n2} /\ r = N(avail) then
    99
  elseif {ni, nj} = {n2, n3} /\ r = N(avail) then
    99
  else
    worstBounds[r]
  endif | ni in Nodes0, nj in Nodes0, r in Res]);

imp = array2d(Comps, Flavs, [
  2, 8, 9,
  4, 6, 9,
  2, 6, 7,
  3, 4, 6,
  1, 2, 5,
  1, 3, 5,
]);

